0
Node Left Objective IInf Best_Integer Best_Bound ItCnt Gap
0+ 0 nan nan 11004.7490 0.0000 nan 100.00%
0+ 0 nan nan 8602.7702 0.0000 nan 100.00%
0 0 4493.1285 7 8602.7702 4493.1285 50 47.77%
0 0 4617.2396 9 8602.7702 LiftProj:4 65 46.33%
0+ 0 nan nan 8337.7702 4617.2396 nan 44.62%
0 0 4653.4559 9 8337.7702 LiftProj:3 71 44.19%
0 0 4700.9629 8 8337.7702 LiftProj:5 80 43.62%
0 0 4766.0399 8 8337.7702 LiftProj:5 94 42.84%
0 0 4777.8957 9 8337.7702 LiftProj:5 100 42.70%
0+ 0 nan nan 7976.1438 4777.8957 nan 40.10%
0 0 4831.6048 9 7976.1438 LiftProj:5 110 39.42%
0 0 4841.7445 8 7976.1438 LiftProj:5 118 39.30%
0 0 4850.2176 9 7976.1438 LiftProj:7 129 39.19%
0 0 4855.0564 9 7976.1438 LiftProj:8 134 39.13%
0 0 4868.6995 9 7976.1438 LiftProj:6 141 38.96%
0 0 4912.4017 9 7976.1438 LiftProj:5 154 38.41%
0 0 4917.0001 9 7976.1438 LiftProj:5 160 38.35%
0 0 4934.3524 9 7976.1438 LiftProj:5 173 38.14%
0 0 4938.4962 9 7976.1438 LiftProj:6 181 38.08%
0 0 4939.2873 9 7976.1438 LiftProj:5 184 38.07%
0 0 4941.9107 9 7976.1438 LiftProj:8 190 38.04%
0 0 4950.2213 9 7976.1438 LiftProj:8 195 37.94%
0 0 4981.7768 8 7976.1438 LiftProj:7 211 37.54%
0 0 4988.6429 9 7976.1438 LiftProj:9 220 37.46%
0 0 4990.6500 9 7976.1438 LiftProj:5 228 37.43%
0 0 4991.3534 9 7976.1438 LiftProj:5 232 37.42%
0 0 4993.7110 9 7976.1438 LiftProj:6 239 37.39%
0 0 4999.0545 9 7976.1438 LiftProj:5 248 37.32%
0 0 5001.2445 9 7976.1438 LiftProj:7 254 37.30%
0 0 5010.9019 9 7976.1438 LiftProj:5 261 37.18%
0 0 5018.5448 9 7976.1438 LiftProj:5 269 37.08%
0 0 5020.3337 9 7976.1438 LiftProj:5 271 37.06%
0 0 5028.8948 8 7976.1438 LiftProj:5 279 36.95%
0 0 5034.2922 9 7976.1438 LiftProj:6 286 36.88%
0 0 5035.8127 9 7976.1438 LiftProj:6 290 36.86%
0 0 5037.9785 9 7976.1438 LiftProj:7 292 36.84%
0 0 5040.6976 9 7976.1438 LiftProj:5 298 36.80%
0 0 5043.3475 9 7976.1438 LiftProj:9 305 36.77%
0 0 5044.0225 9 7976.1438 LiftProj:5 309 36.76%
0 2 5044.0225 9 7976.1438 5052.7701 309 36.65%
CPXPARAM_MIP_Cuts_LiftProj 22
1
Node Left Objective IInf Best_Integer Best_Bound ItCnt Gap
0+ 0 nan nan 11004.7490 0.0000 nan 100.00%
0 0 integral 0 4493.1285 4493.1285 53 0.00%
CPXPARAM_MIP_Cuts_LiftProj 0
2
Node Left Objective IInf Best_Integer Best_Bound ItCnt Gap
0+ 0 nan nan 11004.7490 0.0000 nan 100.00%
0+ 0 nan nan 8602.7702 0.0000 nan 100.00%
0 0 4551.0296 6 8602.7702 4551.0296 57 47.10%
0 0 4655.5459 8 8602.7702 LiftProj:4 73 45.88%
0 0 4714.5320 9 8602.7702 LiftProj:4 86 45.20%
0+ 0 nan nan 6320.6400 4714.5320 nan 25.41%
0 0 4853.8867 8 6320.6400 LiftProj:4 93 23.21%
0 0 4908.0688 9 6320.6400 LiftProj:6 104 22.35%
0+ 0 nan nan 6136.1740 4908.0688 nan 20.01%
0 0 4964.4070 8 6136.1740 LiftProj:6 113 19.10%
0 0 5011.5160 9 6136.1740 LiftProj:5 126 18.33%
0 0 5038.3291 8 6136.1740 LiftProj:5 131 17.89%
0 0 5127.2467 9 6136.1740 LiftProj:5 149 16.44%
0 0 5185.6714 8 6136.1740 LiftProj:8 166 15.49%
0 0 5190.7369 8 6136.1740 LiftProj:3 171 15.41%
0 0 5208.7915 9 6136.1740 LiftProj:4 185 15.11%
0 0 5225.5842 9 6136.1740 LiftProj:4 198 14.84%
0 0 5248.0304 9 6136.1740 LiftProj:5 206 14.47%
0 0 5258.3450 9 6136.1740 LiftProj:4 213 14.31%
0 0 5269.0146 9 6136.1740 LiftProj:5 224 14.13%
0 0 5307.6264 9 6136.1740 LiftProj:8 241 13.50%
0 0 5327.0686 9 6136.1740 LiftProj:7 250 13.19%
0 0 5350.8936 8 6136.1740 LiftProj:2 256 12.80%
0 0 5398.1672 8 6136.1740 LiftProj:5 265 12.03%
0 0 5416.2290 8 6136.1740 LiftProj:5 273 11.73%
0 0 5460.2024 8 6136.1740 LiftProj:5 287 11.02%
0 0 5465.1030 9 6136.1740 LiftProj:4 296 10.94%
0 0 5475.1184 8 6136.1740 LiftProj:2 301 10.77%
0 0 5484.8649 9 6136.1740 LiftProj:4 308 10.61%
0 0 5498.5008 9 6136.1740 LiftProj:4 318 10.39%
0 0 5506.0297 9 6136.1740 LiftProj:3 327 10.27%
0 0 5511.0699 9 6136.1740 LiftProj:2 333 10.19%
0 0 5517.3104 9 6136.1740 LiftProj:3 338 10.09%
0 0 5519.7016 9 6136.1740 LiftProj:3 342 10.05%
0 0 5531.1784 9 6136.1740 LiftProj:4 356 9.86%
0 0 5532.6792 9 6136.1740 LiftProj:3 360 9.84%
0 0 5535.4316 9 6136.1740 LiftProj:4 366 9.79%
0 0 5536.3947 9 6136.1740 LiftProj:2 370 9.77%
0+ 0 nan nan 5965.8269 5536.3947 nan 7.20%
0 2 5659.3869 4 5965.8269 5677.5035 370 4.83%
CPXPARAM_MIP_Cuts_LiftProj 25
3
Node Left Objective IInf Best_Integer Best_Bound ItCnt Gap
0+ 0 nan nan 11004.7490 0.0000 nan 100.00%
0 0 integral 0 5089.3686 5089.3686 41 0.00%
CPXPARAM_MIP_Cuts_LiftProj 0
4
Node Left Objective IInf Best_Integer Best_Bound ItCnt Gap
0+ 0 nan nan 8838.2414 0.0000 nan 100.00%
0+ 0 nan nan 8270.8148 0.0000 nan 100.00%
0 0 5798.2654 7 8270.8148 5798.2654 46 29.89%
0+ 0 nan nan 8227.5567 5798.2654 nan 29.53%
0 0 5798.2654 7 8227.5567 LiftProj:2 50 29.53%
0+ 0 nan nan 6593.3824 5798.2654 nan 12.06%
0 0 5799.6313 9 6593.3824 LiftProj:1 53 12.04%
0 0 5801.0348 9 6593.3824 LiftProj:1 56 12.02%
0 0 5801.0348 9 6593.3824 LiftProj:1 57 12.02%
0 2 5805.1419 7 6593.3824 5879.6114 57 10.83%
CPXPARAM_MIP_Cuts_LiftProj 4
5
Node Left Objective IInf Best_Integer Best_Bound ItCnt Gap
0+ 0 nan nan 8838.2414 0.0000 nan 100.00%
0 0 integral 0 5798.2654 5798.2654 45 0.00%
CPXPARAM_MIP_Cuts_LiftProj 0
6
Node Left Objective IInf Best_Integer Best_Bound ItCnt Gap
0+ 0 nan nan 8838.2414 0.0000 nan 100.00%
0+ 0 nan nan 8670.4195 0.0000 nan 100.00%
0 0 5798.2654 7 8670.4195 5798.2654 52 33.13%
0+ 0 nan nan 8230.0333 5798.2654 nan 29.55%
0 0 5831.7413 9 8230.0333 LiftProj:5 64 29.14%
0+ 0 nan nan 6938.8509 5831.7413 nan 15.96%
0 0 5869.8390 8 6938.8509 LiftProj:5 75 15.41%
0 0 5913.2790 9 6938.8509 LiftProj:6 84 14.78%
0 0 5924.6865 9 6938.8509 LiftProj:7 90 14.62%
0+ 0 nan nan 6593.3824 5924.6865 nan 10.14%
0 0 5943.9304 9 6593.3824 LiftProj:8 104 9.85%
0 0 5967.4146 9 6593.3824 LiftProj:6 123 9.49%
0 0 5970.2687 9 6593.3824 LiftProj:4 125 9.45%
0 0 5980.3472 8 6593.3824 LiftProj:6 132 9.30%
0 0 5987.3947 9 6593.3824 LiftProj:7 140 9.19%
0 0 6002.1617 9 6593.3824 LiftProj:5 149 8.97%
0 0 6004.3331 8 6593.3824 LiftProj:5 156 8.93%
0+ 0 nan nan 6507.9863 6004.3331 nan 7.74%
0 0 6009.4753 9 6507.9863 LiftProj:8 163 7.66%
0 0 6019.8375 9 6507.9863 LiftProj:6 171 7.50%
0 0 6026.9616 9 6507.9863 LiftProj:5 180 7.39%
0 0 6029.1553 9 6507.9863 LiftProj:6 188 7.36%
0 0 6029.7382 9 6507.9863 LiftProj:5 190 7.35%
0 0 6044.7039 9 6507.9863 LiftProj:5 204 7.12%
0 0 6045.9837 9 6507.9863 LiftProj:3 207 7.10%
0 0 6046.2399 9 6507.9863 LiftProj:1 208 7.10%
0 2 6065.6696 6 6507.9863 6078.5231 208 6.60%
CPXPARAM_MIP_Cuts_LiftProj 16
7
Node Left Objective IInf Best_Integer Best_Bound ItCnt Gap
0+ 0 nan nan 8838.2414 0.0000 nan 100.00%
0 0 integral 0 5935.6407 5935.6407 43 0.00%
CPXPARAM_MIP_Cuts_LiftProj 0
8
Node Left Objective IInf Best_Integer Best_Bound ItCnt Gap
0+ 0 nan nan 10488.8441 0.0000 nan 100.00%
0+ 0 nan nan 9144.4107 0.0000 nan 100.00%
0 0 7125.1247 7 9144.4107 7125.1247 54 22.08%
0 0 7229.4455 9 9144.4107 LiftProj:4 66 20.94%
0+ 0 nan nan 8994.2922 7229.4455 nan 19.62%
0 0 7234.2183 9 8994.2922 LiftProj:2 67 19.57%
0 0 7260.4896 9 8994.2922 LiftProj:3 73 19.28%
0 0 7278.2014 9 8994.2922 LiftProj:4 84 19.08%
0+ 0 nan nan 8668.9214 7278.2014 nan 16.04%
0 0 7294.0176 9 8668.9214 LiftProj:2 88 15.86%
0 0 7295.4361 9 8668.9214 LiftProj:3 90 15.84%
0 0 7299.0876 9 8668.9214 LiftProj:3 95 15.80%
0 0 7308.9652 9 8668.9214 LiftProj:4 100 15.69%
0 0 7310.3516 9 8668.9214 LiftProj:2 104 15.67%
0 0 7315.2263 9 8668.9214 LiftProj:2 109 15.62%
0 0 7316.1242 9 8668.9214 LiftProj:3 112 15.61%
0 0 7316.7848 9 8668.9214 LiftProj:4 117 15.60%
0 0 7317.8283 9 8668.9214 LiftProj:2 120 15.59%
0 0 7318.1254 9 8668.9214 LiftProj:1 122 15.58%
0 2 7318.1254 9 8668.9214 7465.5996 122 13.88%
CPXPARAM_MIP_Cuts_LiftProj 11
9
Node Left Objective IInf Best_Integer Best_Bound ItCnt Gap
0+ 0 nan nan 10488.8441 0.0000 nan 100.00%
0 0 integral 0 7190.6688 7190.6688 45 0.00%
CPXPARAM_MIP_Cuts_LiftProj 0
10
Node Left Objective IInf Best_Integer Best_Bound ItCnt Gap
0+ 0 nan nan 10488.8441 0.0000 nan 100.00%
0 0 7200.3815 5 10488.8441 7200.3815 57 31.35%
0+ 0 nan nan 9179.8638 7200.3815 nan 21.56%
0 0 7200.3815 5 9179.8638 LiftProj:1 59 21.56%
0+ 0 nan nan 9160.1498 7200.3815 nan 21.39%
0 0 7200.3815 6 9160.1498 LiftProj:1 61 21.39%
0+ 0 nan nan 8800.8062 7200.3815 nan 18.18%
0 2 7200.3815 6 8800.8062 7200.3815 61 18.18%
CPXPARAM_MIP_Cuts_LiftProj 2
11
Node Left Objective IInf Best_Integer Best_Bound ItCnt Gap
0+ 0 nan nan 10488.8441 0.0000 nan 100.00%
0 0 integral 0 7566.2609 7566.2609 45 0.00%
CPXPARAM_MIP_Cuts_LiftProj 0
12
Node Left Objective IInf Best_Integer Best_Bound ItCnt Gap
0+ 0 nan nan 8568.0971 0.0000 nan 100.00%
0+ 0 nan nan 7682.8104 0.0000 nan 100.00%
0 0 5623.8596 7 7682.8104 5623.8596 46 26.80%
0 0 5689.1761 9 7682.8104 LiftProj:4 55 25.95%
0+ 0 nan nan 7185.0429 5689.1761 nan 20.82%
0 0 5744.5241 9 7185.0429 LiftProj:2 61 20.05%
0 0 5770.4325 9 7185.0429 LiftProj:4 63 19.69%
0 0 5826.1284 9 7185.0429 LiftProj:4 72 18.91%
0 0 5841.2059 9 7185.0429 LiftProj:2 77 18.70%
0 0 5855.5489 9 7185.0429 LiftProj:4 82 18.50%
0 0 5872.9118 9 7185.0429 LiftProj:4 89 18.26%
0 0 5910.1453 9 7185.0429 LiftProj:5 97 17.74%
0 0 5924.8860 9 7185.0429 LiftProj:5 105 17.54%
0 0 5926.5896 9 7185.0429 LiftProj:5 109 17.51%
0 0 5932.8775 9 7185.0429 LiftProj:4 114 17.43%
0 0 5946.4208 9 7185.0429 LiftProj:4 120 17.24%
0 0 5970.4390 9 7185.0429 LiftProj:8 132 16.90%
0 0 5978.1652 9 7185.0429 LiftProj:4 136 16.80%
0 0 5989.4110 9 7185.0429 LiftProj:5 145 16.64%
0 0 5997.4989 9 7185.0429 LiftProj:4 152 16.53%
0 0 6000.1163 9 7185.0429 LiftProj:7 157 16.49%
0 0 6003.4034 9 7185.0429 LiftProj:5 166 16.45%
0 0 6004.5698 9 7185.0429 LiftProj:4 173 16.43%
0 0 6004.7008 9 7185.0429 LiftProj:3 177 16.43%
0 0 6007.3721 9 7185.0429 LiftProj:7 183 16.39%
0 0 6010.9918 9 7185.0429 LiftProj:4 188 16.34%
0 0 6011.6158 9 7185.0429 LiftProj:5 194 16.33%
0 2 6011.6158 9 7185.0429 6019.3242 194 16.22%
CPXPARAM_MIP_Cuts_LiftProj 18
13
Node Left Objective IInf Best_Integer Best_Bound ItCnt Gap
0+ 0 nan nan 8568.0971 0.0000 nan 100.00%
0 0 integral 0 5816.6887 5816.6887 49 0.00%
CPXPARAM_MIP_Cuts_LiftProj 0
14
Node Left Objective IInf Best_Integer Best_Bound ItCnt Gap
0+ 0 nan nan 8568.0971 0.0000 nan 100.00%
0+ 0 nan nan 7682.8104 0.0000 nan 100.00%
0 0 5623.8596 7 7682.8104 5623.8596 40 26.80%
0 0 5623.8596 7 7682.8104 LiftProj:2 44 26.80%
0 0 5640.0553 9 7682.8104 LiftProj:2 47 26.59%
0 0 5663.4359 9 7682.8104 LiftProj:1 48 26.28%
0 0 5726.7244 9 7682.8104 LiftProj:3 56 25.46%
0 0 5739.5643 9 7682.8104 LiftProj:3 59 25.29%
0 0 5747.3255 9 7682.8104 LiftProj:4 65 25.19%
0 0 5758.0409 9 7682.8104 LiftProj:4 71 25.05%
0 0 5808.9635 9 7682.8104 LiftProj:5 79 24.39%
0 0 5837.9474 9 7682.8104 LiftProj:4 86 24.01%
0+ 0 nan nan 7625.8401 5837.9474 nan 23.45%
0 0 5851.7344 9 7625.8401 LiftProj:5 93 23.26%
0 0 5860.0956 9 7625.8401 LiftProj:7 103 23.15%
0 0 5878.0064 9 7625.8401 LiftProj:4 113 22.92%
0 0 5888.1441 9 7625.8401 LiftProj:5 119 22.79%
0 0 5894.9364 9 7625.8401 LiftProj:5 128 22.70%
0 0 5904.0714 9 7625.8401 LiftProj:5 136 22.58%
0 0 5909.6970 9 7625.8401 LiftProj:5 144 22.50%
0 0 5917.8052 9 7625.8401 LiftProj:4 154 22.40%
0 0 5925.2610 9 7625.8401 LiftProj:3 160 22.30%
0 0 5926.8344 9 7625.8401 LiftProj:4 166 22.28%
0 0 5927.2490 9 7625.8401 LiftProj:2 168 22.27%
0 2 5927.2490 9 7625.8401 6107.1399 168 19.92%
CPXPARAM_MIP_Cuts_LiftProj 16
15
Node Left Objective IInf Best_Integer Best_Bound ItCnt Gap
0+ 0 nan nan 8568.0971 0.0000 nan 100.00%
0 0 integral 0 6048.6260 6048.6260 40 0.00%
CPXPARAM_MIP_Cuts_LiftProj 0
16
Node Left Objective IInf Best_Integer Best_Bound ItCnt Gap
0+ 0 nan nan 8483.8978 0.0000 nan 100.00%
0 0 6204.6365 7 8483.8978 6204.6365 47 26.87%
0+ 0 nan nan 8131.2738 6204.6365 nan 23.69%
0 0 6282.2432 7 8131.2738 LiftProj:4 58 22.74%
0+ 0 nan nan 6912.1997 6282.2432 nan 9.11%
0 0 6288.3141 9 6912.1997 LiftProj:4 63 9.03%
0 0 6300.2673 9 6912.1997 LiftProj:3 68 8.85%
0 0 6306.6246 9 6912.1997 LiftProj:4 72 8.76%
0 0 6312.1659 9 6912.1997 LiftProj:3 76 8.68%
0 0 6314.3855 9 6912.1997 LiftProj:4 80 8.65%
0 0 6318.9655 9 6912.1997 LiftProj:4 88 8.58%
0 0 6322.6206 9 6912.1997 LiftProj:4 92 8.53%
0 0 6332.1598 9 6912.1997 LiftProj:3 97 8.39%
0 0 6336.5391 9 6912.1997 LiftProj:5 103 8.33%
0 0 6340.4610 9 6912.1997 LiftProj:4 106 8.27%
0 0 6349.6877 8 6912.1997 LiftProj:4 113 8.14%
0 0 6354.8112 9 6912.1997 LiftProj:3 116 8.06%
0 0 6355.6563 9 6912.1997 LiftProj:5 117 8.05%
0 0 6360.3815 9 6912.1997 LiftProj:3 121 7.98%
0 0 6361.9103 9 6912.1997 LiftProj:3 124 7.96%
0 0 6361.9761 9 6912.1997 LiftProj:3 126 7.96%
0 2 6362.3279 8 6912.1997 6370.6753 126 7.83%
CPXPARAM_MIP_Cuts_LiftProj 13
17
Node Left Objective IInf Best_Integer Best_Bound ItCnt Gap
0+ 0 nan nan 8483.8978 0.0000 nan 100.00%
0 0 integral 0 6303.6967 6303.6967 51 0.00%
CPXPARAM_MIP_Cuts_LiftProj 0
18
Node Left Objective IInf Best_Integer Best_Bound ItCnt Gap
0+ 0 nan nan 8483.8978 0.0000 nan 100.00%
0 0 6236.8972 6 8483.8978 6236.8972 38 26.49%
0+ 0 nan nan 8133.9648 6236.8972 nan 23.32%
0 0 6236.8972 6 8133.9648 LiftProj:2 42 23.32%
0+ 0 nan nan 7177.3953 6236.8972 nan 13.10%
0 0 6249.7837 8 7177.3953 LiftProj:1 44 12.92%
0+ 0 nan nan 7133.4005 6249.7837 nan 12.39%
0 0 6297.3631 8 7133.4005 LiftProj:2 46 11.72%
0+ 0 nan nan 7002.7404 6297.3631 nan 10.07%
0 0 6306.2176 8 7002.7404 LiftProj:4 52 9.95%
0 0 6334.2075 8 7002.7404 LiftProj:4 59 9.55%
0 0 6343.3119 6 7002.7404 LiftProj:4 65 9.42%
0 0 6347.0931 7 7002.7404 LiftProj:3 70 9.36%
0 0 6353.7289 8 7002.7404 LiftProj:3 76 9.27%
0 0 6358.5593 7 7002.7404 LiftProj:4 79 9.20%
0 0 6367.4266 7 7002.7404 LiftProj:3 81 9.07%
0 0 6369.5234 7 7002.7404 LiftProj:4 86 9.04%
0 0 6372.3653 8 7002.7404 LiftProj:3 90 9.00%
0 0 6375.8950 8 7002.7404 LiftProj:3 94 8.95%
0 0 6376.7079 8 7002.7404 LiftProj:4 97 8.94%
0 2 6379.3846 7 7002.7404 6387.9744 97 8.78%
CPXPARAM_MIP_Cuts_LiftProj 9
19
Node Left Objective IInf Best_Integer Best_Bound ItCnt Gap
0+ 0 nan nan 8483.8978 0.0000 nan 100.00%
0 0 integral 0 6443.0511 6443.0511 38 0.00%
CPXPARAM_MIP_Cuts_LiftProj 0
20
Node Left Objective IInf Best_Integer Best_Bound ItCnt Gap
0+ 0 nan nan 6916.5237 0.0000 nan 100.00%
0+ 0 nan nan 6541.4998 0.0000 nan 100.00%
0 0 4118.1255 7 6541.4998 4118.1255 41 37.05%
0+ 0 nan nan 4855.5259 4118.1255 nan 15.19%
0 0 4118.1255 7 4855.5259 LiftProj:1 43 15.19%
0+ 0 nan nan 4654.2661 4118.1255 nan 11.52%
0 0 4118.1255 8 4654.2661 LiftProj:1 45 11.52%
0 2 4163.4245 7 4654.2661 4181.0991 45 10.17%
CPXPARAM_MIP_Cuts_LiftProj 2
21
Node Left Objective IInf Best_Integer Best_Bound ItCnt Gap
0+ 0 nan nan 6916.5237 0.0000 nan 100.00%
0 0 integral 0 4118.1255 4118.1255 40 0.00%
CPXPARAM_MIP_Cuts_LiftProj 0
22
Node Left Objective IInf Best_Integer Best_Bound ItCnt Gap
0+ 0 nan nan 6916.5237 0.0000 nan 100.00%
0+ 0 nan nan 6561.8501 0.0000 nan 100.00%
0 0 4118.6281 7 6561.8501 4118.6281 35 37.23%
0+ 0 nan nan 5710.7534 4118.6281 nan 27.88%
0 0 4122.1204 9 5710.7534 LiftProj:2 39 27.82%
0 0 4123.8365 9 5710.7534 LiftProj:2 42 27.79%
0 0 4138.4610 8 5710.7534 LiftProj:1 47 27.53%
0 0 4140.9412 9 5710.7534 LiftProj:4 50 27.49%
0 0 4146.2416 9 5710.7534 LiftProj:3 53 27.40%
0 0 4169.5074 9 5710.7534 LiftProj:2 56 26.99%
0 0 4175.8906 7 5710.7534 LiftProj:2 59 26.88%
0 0 4176.6705 8 5710.7534 LiftProj:4 61 26.86%
0 0 4179.2252 9 5710.7534 LiftProj:2 63 26.82%
0 0 4179.3432 9 5710.7534 LiftProj:2 66 26.82%
0 0 4179.4153 9 5710.7534 LiftProj:2 69 26.81%
0 2 4179.4153 9 5710.7534 4179.4153 69 26.81%
CPXPARAM_MIP_Cuts_LiftProj 9
23
Node Left Objective IInf Best_Integer Best_Bound ItCnt Gap
0+ 0 nan nan 6916.5237 0.0000 nan 100.00%
0 0 integral 0 4118.1255 4118.1255 40 0.00%
CPXPARAM_MIP_Cuts_LiftProj 0
24
Node Left Objective IInf Best_Integer Best_Bound ItCnt Gap
0+ 0 nan nan 7116.0235 0.0000 nan 100.00%
0+ 0 nan nan 6300.8955 0.0000 nan 100.00%
0 0 5093.9502 7 6300.8955 5093.9502 50 19.16%
0+ 0 nan nan 6203.5640 5093.9502 nan 17.89%
0 0 5093.9502 7 6203.5640 LiftProj:1 52 17.89%
0+ 0 nan nan 5285.5091 5093.9502 nan 3.62%
0 0 5093.9502 8 5285.5091 LiftProj:1 54 3.62%
0 2 5095.7342 8 5285.5091 5108.4848 54 3.35%
CPXPARAM_MIP_Cuts_LiftProj 2
25
Node Left Objective IInf Best_Integer Best_Bound ItCnt Gap
0+ 0 nan nan 7116.0235 0.0000 nan 100.00%
0 0 integral 0 5101.0707 5101.0707 44 0.00%
CPXPARAM_MIP_Cuts_LiftProj 0
26
Node Left Objective IInf Best_Integer Best_Bound ItCnt Gap
0+ 0 nan nan 7116.0235 0.0000 nan 100.00%
0+ 0 nan nan 6326.3054 0.0000 nan 100.00%
0 0 5099.6969 6 6326.3054 5099.6969 42 19.39%
0+ 0 nan nan 6203.7226 5099.6969 nan 17.80%
0 0 5099.6969 6 6203.7226 LiftProj:2 46 17.80%
0+ 0 nan nan 6144.3414 5099.6969 nan 17.00%
0 0 5103.6625 6 6144.3414 LiftProj:1 52 16.94%
0+ 0 nan nan 5418.8328 5103.6625 nan 5.82%
0 0 5123.1764 6 5418.8328 LiftProj:2 60 5.46%
0+ 0 nan nan 5285.5091 5123.1764 nan 3.07%
0 0 5125.8663 7 5285.5091 LiftProj:4 66 3.02%
0 0 5130.9220 7 5285.5091 LiftProj:4 71 2.92%
0 0 5137.5440 7 5285.5091 LiftProj:4 77 2.80%
0 0 5148.4494 7 5285.5091 LiftProj:3 85 2.59%
0 0 5151.4558 7 5285.5091 LiftProj:3 90 2.54%
0 0 5153.5203 7 5285.5091 LiftProj:3 95 2.50%
0 0 5167.1442 7 5285.5091 LiftProj:3 105 2.24%
0 0 5169.2729 6 5285.5091 LiftProj:1 109 2.20%
0 0 5169.7898 7 5285.5091 LiftProj:2 112 2.19%
0 0 cutoff 5285.5091 5169.7898 112 2.19% 0
CPXPARAM_MIP_Cuts_LiftProj 9
27
Node Left Objective IInf Best_Integer Best_Bound ItCnt Gap
0+ 0 nan nan 7116.0235 0.0000 nan 100.00%
0 0 5102.0512 1 7116.0235 5102.0512 36 28.30%
0+ 0 nan nan 5102.4619 5102.0512 nan 0.01%
CPXPARAM_MIP_Cuts_LiftProj 0
28
Node Left Objective IInf Best_Integer Best_Bound ItCnt Gap
0+ 0 nan nan 10996.9752 0.0000 nan 100.00%
0+ 0 nan nan 10656.8722 0.0000 nan 100.00%
0 0 8102.9887 7 10656.8722 8102.9887 53 23.96%
0+ 0 nan nan 9323.1599 8102.9887 nan 13.09%
0 0 8102.9887 7 9323.1599 LiftProj:2 57 13.09%
0 0 8127.6265 9 9323.1599 LiftProj:2 59 12.82%
0+ 0 nan nan 8702.9889 8127.6265 nan 6.61%
0 0 8162.5565 8 8702.9889 LiftProj:1 63 6.21%
0 0 8216.3453 9 8702.9889 LiftProj:3 71 5.59%
0 0 8259.5497 8 8702.9889 LiftProj:4 82 5.10%
0 0 8265.0216 8 8702.9889 LiftProj:4 88 5.03%
0 0 8272.1268 9 8702.9889 LiftProj:4 93 4.95%
0 0 8303.6628 8 8702.9889 LiftProj:3 105 4.59%
0 0 8316.5564 9 8702.9889 LiftProj:2 108 4.44%
0 0 8333.5743 9 8702.9889 LiftProj:3 115 4.24%
0 0 8339.5841 9 8702.9889 LiftProj:3 124 4.18%
0 0 8350.0544 8 8702.9889 LiftProj:4 138 4.06%
0 0 8353.4463 8 8702.9889 LiftProj:3 146 4.02%
0 0 8353.7464 9 8702.9889 LiftProj:3 150 4.01%
0 2 8362.6219 8 8702.9889 8363.1869 150 3.90%
CPXPARAM_MIP_Cuts_LiftProj 16
29
Node Left Objective IInf Best_Integer Best_Bound ItCnt Gap
0+ 0 nan nan 10996.9752 0.0000 nan 100.00%
0 0 integral 0 8102.9887 8102.9887 45 0.00%
CPXPARAM_MIP_Cuts_LiftProj 0
30
Node Left Objective IInf Best_Integer Best_Bound ItCnt Gap
0+ 0 nan nan 10996.9752 0.0000 nan 100.00%
0+ 0 nan nan 10687.4588 0.0000 nan 100.00%
0 0 8102.9887 7 10687.4588 8102.9887 46 24.18%
0+ 0 nan nan 9323.1599 8102.9887 nan 13.09%
0 0 8159.1128 7 9323.1599 LiftProj:4 60 12.49%
0 0 8245.5309 9 9323.1599 LiftProj:3 72 11.56%
0+ 0 nan nan 8702.9889 8245.5309 nan 5.26%
0 0 8265.9582 8 8702.9889 LiftProj:5 80 5.02%
0 0 8302.6382 8 8702.9889 LiftProj:3 88 4.60%
0 0 8317.4666 9 8702.9889 LiftProj:3 96 4.43%
0 0 8338.3478 8 8702.9889 LiftProj:4 109 4.19%
0 0 8344.8526 7 8702.9889 LiftProj:5 115 4.12%
0 0 8356.3005 9 8702.9889 LiftProj:5 125 3.98%
0 0 8369.4377 8 8702.9889 LiftProj:5 134 3.83%
0 0 8382.1199 9 8702.9889 LiftProj:5 144 3.69%
0 0 8393.4331 9 8702.9889 LiftProj:3 153 3.56%
0 0 8395.0702 9 8702.9889 LiftProj:2 155 3.54%
0 0 8399.0773 9 8702.9889 LiftProj:5 161 3.49%
0 0 8402.1943 9 8702.9889 LiftProj:3 167 3.46%
0 0 8406.0924 9 8702.9889 LiftProj:4 172 3.41%
0 0 8406.6517 9 8702.9889 LiftProj:3 175 3.41%
0 0 8406.9069 9 8702.9889 LiftProj:5 178 3.40%
0 2 8420.6989 5 8702.9889 8425.5594 178 3.19%
CPXPARAM_MIP_Cuts_LiftProj 14
31
Node Left Objective IInf Best_Integer Best_Bound ItCnt Gap
0+ 0 nan nan 10996.9752 0.0000 nan 100.00%
0 0 integral 0 8102.9887 8102.9887 39 0.00%
CPXPARAM_MIP_Cuts_LiftProj 0
32
Node Left Objective IInf Best_Integer Best_Bound ItCnt Gap
0+ 0 nan nan 8525.2825 0.0000 nan 100.00%
0+ 0 nan nan 7594.6640 0.0000 nan 100.00%
0 0 4523.5692 7 7594.6640 4523.5692 51 40.44%
0+ 0 nan nan 7273.8068 4523.5692 nan 37.81%
0 0 4533.2961 9 7273.8068 LiftProj:3 59 37.68%
0+ 0 nan nan 5953.6921 4533.2961 nan 23.86%
0 0 4574.1943 9 5953.6921 LiftProj:2 69 23.17%
0+ 0 nan nan 5572.7330 4574.1943 nan 17.92%
0 0 4588.1711 9 5572.7330 LiftProj:3 78 17.67%
0 0 4613.4037 9 5572.7330 LiftProj:4 86 17.21%
0 0 4669.7424 9 5572.7330 LiftProj:4 94 16.20%
0 0 4710.8832 8 5572.7330 LiftProj:4 104 15.47%
0 0 4735.3703 8 5572.7330 LiftProj:4 113 15.03%
0 0 4742.5414 9 5572.7330 LiftProj:4 124 14.90%
0 0 4752.7043 9 5572.7330 LiftProj:4 138 14.72%
0 0 4778.7028 9 5572.7330 LiftProj:5 149 14.25%
0 0 4800.8513 9 5572.7330 LiftProj:6 159 13.85%
0 0 4833.2677 9 5572.7330 LiftProj:5 166 13.27%
0 0 4864.3388 8 5572.7330 LiftProj:5 176 12.71%
0 0 4877.3013 9 5572.7330 LiftProj:5 189 12.48%
0 0 4901.4896 9 5572.7330 LiftProj:4 201 12.05%
0 0 4903.0932 9 5572.7330 LiftProj:4 209 12.02%
0 0 4906.9180 9 5572.7330 LiftProj:4 217 11.95%
0 0 4913.2178 9 5572.7330 LiftProj:5 223 11.83%
0 0 4922.5207 8 5572.7330 LiftProj:4 232 11.67%
0 0 4934.1236 9 5572.7330 LiftProj:4 240 11.46%
0 0 4938.2887 9 5572.7330 LiftProj:6 249 11.38%
0 0 4946.3351 9 5572.7330 LiftProj:3 254 11.24%
0 0 4954.7556 9 5572.7330 LiftProj:4 261 11.09%
0 0 4960.4612 9 5572.7330 LiftProj:6 268 10.99%
0 0 4969.7173 9 5572.7330 LiftProj:7 273 10.82%
0 0 4986.2912 9 5572.7330 LiftProj:4 285 10.52%
0 0 4992.9246 9 5572.7330 LiftProj:5 288 10.40%
0 0 5000.5534 9 5572.7330 LiftProj:5 296 10.27%
0 0 5008.1868 9 5572.7330 LiftProj:4 305 10.13%
0 0 5012.5551 9 5572.7330 LiftProj:5 311 10.05%
0 0 5014.3022 9 5572.7330 LiftProj:4 317 10.02%
0 0 5019.8462 9 5572.7330 LiftProj:5 321 9.92%
0 0 5022.6452 9 5572.7330 LiftProj:4 328 9.87%
0 0 5038.5957 9 5572.7330 LiftProj:4 336 9.58%
0 0 5068.9923 9 5572.7330 LiftProj:4 353 9.04%
0 0 5077.1170 9 5572.7330 LiftProj:5 364 8.89%
0 0 5085.5043 9 5572.7330 LiftProj:5 374 8.74%
0 0 5098.0573 9 5572.7330 LiftProj:6 390 8.52%
0 0 5102.5776 9 5572.7330 LiftProj:4 401 8.44%
0 0 5108.3012 9 5572.7330 LiftProj:4 411 8.33%
0 0 5113.0482 9 5572.7330 LiftProj:4 419 8.25%
0 0 5117.9946 9 5572.7330 LiftProj:11 431 8.16%
0 0 5129.9287 9 5572.7330 LiftProj:5 441 7.95%
0 0 5134.8009 9 5572.7330 LiftProj:10 452 7.86%
0 0 5135.1029 9 5572.7330 LiftProj:5 455 7.85%
0 0 5143.6037 9 5572.7330 LiftProj:5 465 7.70%
0 0 5152.9247 9 5572.7330 LiftProj:5 474 7.53%
0 0 5153.2830 9 5572.7330 LiftProj:3 480 7.53%
0 2 5218.5894 5 5572.7330 5233.6179 480 6.09%
CPXPARAM_MIP_Cuts_LiftProj 24
33
Node Left Objective IInf Best_Integer Best_Bound ItCnt Gap
0+ 0 nan nan 8525.2825 0.0000 nan 100.00%
0 0 integral 0 4536.2805 4536.2805 46 0.00%
CPXPARAM_MIP_Cuts_LiftProj 0
34
Node Left Objective IInf Best_Integer Best_Bound ItCnt Gap
0+ 0 nan nan 8525.2825 0.0000 nan 100.00%
0+ 0 nan nan 7625.7406 0.0000 nan 100.00%
0 0 4536.2805 6 7625.7406 4536.2805 41 40.51%
0+ 0 nan nan 7330.1259 4536.2805 nan 38.11%
0 0 4536.2805 6 7330.1259 LiftProj:1 43 38.11%
0+ 0 nan nan 6571.9700 4536.2805 nan 30.98%
0 0 4536.2805 7 6571.9700 LiftProj:1 45 30.98%
0+ 0 nan nan 5953.6921 4536.2805 nan 23.81%
0 2 4536.2805 6 5953.6921 4557.5574 45 23.45%
CPXPARAM_MIP_Cuts_LiftProj 2
35
Node Left Objective IInf Best_Integer Best_Bound ItCnt Gap
0+ 0 nan nan 8525.2825 0.0000 nan 100.00%
0+ 0 nan nan 5710.8795 0.0000 nan 100.00%
0 0 integral 0 5672.7423 5672.7423 40 0.00%
CPXPARAM_MIP_Cuts_LiftProj 0
36
Node Left Objective IInf Best_Integer Best_Bound ItCnt Gap
0+ 0 nan nan 9622.7131 0.0000 nan 100.00%
0+ 0 nan nan 8425.2960 0.0000 nan 100.00%
0 0 5884.9287 7 8425.2960 5884.9287 55 30.15%
0+ 0 nan nan 7846.0391 5884.9287 nan 24.99%
0+ 0 nan nan 7480.4089 5884.9287 nan 21.33%
0+ 0 nan nan 6886.9543 5884.9287 nan 14.55%
0 2 5884.9287 7 6886.9543 5884.9287 55 14.55%
CPXPARAM_MIP_Cuts_LiftProj 0
37
Node Left Objective IInf Best_Integer Best_Bound ItCnt Gap
0+ 0 nan nan 9622.7131 0.0000 nan 100.00%
0 0 integral 0 5884.9287 5884.9287 48 0.00%
CPXPARAM_MIP_Cuts_LiftProj 0
38
Node Left Objective IInf Best_Integer Best_Bound ItCnt Gap
0+ 0 nan nan 9622.7131 0.0000 nan 100.00%
0+ 0 nan nan 8425.2960 0.0000 nan 100.00%
0 0 5884.9287 7 8425.2960 5884.9287 41 30.15%
0+ 0 nan nan 7846.0391 5884.9287 nan 24.99%
0 0 5884.9287 7 7846.0391 LiftProj:2 45 24.99%
0 0 5897.8369 8 7846.0391 LiftProj:2 50 24.83%
0+ 0 nan nan 7129.2765 5897.8369 nan 17.27%
0 0 5957.5292 7 7129.2765 LiftProj:2 54 16.44%
0 0 5968.6105 8 7129.2765 LiftProj:2 57 16.28%
0+ 0 nan nan 6920.5132 5968.6105 nan 13.75%
0 0 5982.8042 8 6920.5132 LiftProj:3 64 13.55%
0+ 0 nan nan 6886.9543 5982.8042 nan 13.13%
0 0 5993.5861 8 6886.9543 LiftProj:4 68 12.97%
0 0 6008.2519 8 6886.9543 LiftProj:4 77 12.76%
0 0 6064.0421 8 6886.9543 LiftProj:6 87 11.95%
0 0 6093.0904 8 6886.9543 LiftProj:6 100 11.53%
0 0 6107.1208 8 6886.9543 LiftProj:3 106 11.32%
0 0 6127.0923 8 6886.9543 LiftProj:3 115 11.03%
0 0 6133.3910 8 6886.9543 LiftProj:5 120 10.94%
0 0 6154.1843 8 6886.9543 LiftProj:7 126 10.64%
0 0 6175.7932 8 6886.9543 LiftProj:5 136 10.33%
0 0 6183.5118 9 6886.9543 LiftProj:5 143 10.21%
0 0 6199.7212 8 6886.9543 LiftProj:10 151 9.98%
0 0 6200.4734 8 6886.9543 LiftProj:5 155 9.97%
0 2 6217.2946 7 6886.9543 6278.9231 155 8.83%
CPXPARAM_MIP_Cuts_LiftProj 14
39
Node Left Objective IInf Best_Integer Best_Bound ItCnt Gap
0+ 0 nan nan 9622.7131 0.0000 nan 100.00%
0 0 integral 0 5998.5362 5998.5362 40 0.00%
CPXPARAM_MIP_Cuts_LiftProj 0
